c FILE: i080-014

c SOURCE: From steinlib

c DESCRIPTION: Steinlib instance with 80 nodes and 350 edges.

p edge 80 350
e 1 2
e 1 14
e 1 15
e 1 27
e 1 49
e 1 57
e 1 61
e 1 62
e 1 72
e 1 74
e 1 75
e 1 78
e 2 12
e 2 23
e 2 38
e 2 64
e 2 65
e 2 66
e 2 71
e 2 80
e 3 4
e 3 11
e 3 15
e 3 17
e 3 31
e 3 50
e 3 53
e 3 54
e 3 56
e 3 69
e 3 78
e 4 6
e 4 9
e 4 18
e 4 25
e 4 30
e 4 43
e 4 45
e 4 46
e 4 53
e 4 76
e 4 79
e 5 9
e 5 12
e 5 33
e 5 34
e 5 39
e 5 59
e 5 60
e 5 63
e 5 76
e 6 7
e 6 15
e 6 17
e 6 48
e 6 50
e 6 60
e 6 68
e 6 70
e 7 11
e 7 13
e 7 19
e 7 41
e 7 44
e 7 49
e 7 77
e 8 10
e 8 12
e 8 29
e 8 36
e 8 57
e 8 72
e 8 78
e 9 11
e 9 30
e 9 33
e 9 46
e 9 62
e 9 69
e 9 75
e 10 30
e 10 32
e 10 42
e 10 73
e 11 15
e 11 24
e 11 27
e 11 40
e 11 44
e 11 50
e 11 59
e 11 79
e 12 25
e 12 30
e 12 56
e 12 66
e 12 76
e 13 18
e 13 47
e 13 61
e 13 62
e 13 64
e 14 24
e 14 25
e 14 27
e 14 39
e 14 50
e 14 51
e 14 52
e 14 68
e 14 70
e 14 74
e 14 79
e 15 16
e 15 22
e 15 23
e 15 30
e 15 32
e 15 45
e 15 56
e 15 67
e 15 72
e 15 80
e 16 17
e 16 33
e 16 50
e 16 71
e 17 23
e 17 29
e 17 33
e 17 40
e 17 50
e 17 56
e 17 64
e 17 73
e 17 75
e 18 28
e 18 36
e 18 65
e 18 67
e 18 75
e 18 76
e 18 78
e 19 32
e 19 43
e 19 46
e 19 71
e 20 25
e 20 31
e 20 39
e 20 41
e 20 61
e 20 77
e 20 80
e 21 25
e 21 28
e 21 31
e 21 40
e 21 42
e 21 43
e 21 50
e 21 51
e 21 80
e 22 31
e 22 36
e 22 47
e 22 50
e 22 57
e 22 79
e 23 53
e 23 59
e 23 61
e 23 65
e 23 78
e 24 27
e 24 31
e 24 55
e 24 61
e 24 66
e 24 68
e 24 75
e 25 29
e 25 52
e 25 57
e 25 65
e 25 73
e 25 80
e 26 40
e 26 41
e 26 78
e 26 79
e 27 35
e 27 37
e 27 55
e 27 60
e 28 70
e 28 72
e 28 75
e 29 52
e 29 55
e 29 56
e 29 61
e 30 46
e 30 48
e 30 56
e 30 57
e 30 58
e 30 64
e 30 65
e 30 69
e 30 71
e 30 72
e 31 39
e 31 66
e 31 69
e 31 72
e 31 76
e 32 35
e 32 42
e 32 63
e 32 72
e 32 73
e 32 76
e 33 34
e 33 42
e 33 45
e 33 55
e 33 56
e 33 62
e 33 70
e 34 43
e 34 48
e 34 50
e 34 52
e 34 56
e 34 63
e 34 68
e 34 70
e 34 72
e 34 76
e 35 68
e 35 74
e 36 42
e 36 53
e 36 55
e 36 56
e 36 61
e 36 65
e 36 76
e 37 43
e 37 45
e 37 54
e 37 59
e 37 74
e 38 40
e 38 45
e 38 54
e 38 55
e 38 70
e 38 78
e 39 50
e 39 62
e 39 78
e 39 79
e 40 50
e 40 55
e 40 63
e 40 64
e 40 65
e 40 69
e 40 80
e 41 46
e 41 57
e 41 76
e 42 53
e 42 58
e 42 80
e 43 67
e 43 80
e 44 55
e 44 59
e 44 61
e 44 74
e 45 57
e 45 60
e 45 61
e 45 66
e 45 67
e 45 68
e 46 66
e 46 70
e 46 77
e 47 70
e 48 69
e 49 54
e 49 67
e 49 72
e 49 79
e 50 52
e 50 63
e 50 66
e 50 67
e 50 71
e 50 79
e 51 59
e 51 68
e 51 77
e 51 79
e 52 53
e 52 79
e 53 60
e 53 69
e 53 80
e 54 59
e 54 80
e 55 60
e 55 61
e 55 62
e 55 80
e 56 60
e 56 63
e 56 64
e 56 75
e 58 65
e 58 67
e 58 68
e 58 74
e 59 65
e 59 68
e 61 64
e 61 75
e 62 64
e 62 75
e 62 76
e 65 69
e 65 70
e 65 72
e 65 76
e 66 71
e 66 75
e 66 76
e 67 69
e 67 76
e 68 69
e 68 72
e 70 75
e 71 72
e 71 75
e 73 75
e 75 80
